Route #1: 29 39 36 45 42 10 7 21 35 41 19 22 8 32 16 4 34
Route #2: 12 6 17 40 9 28 20 23 13 33 38 24
Route #3: 15 25 18
Route #4: 1 11 3 37 2 43
Route #5: 44 14 30 26 31 27 5
Route #6: 
cost 775.7869659162382
